% demand
num_movements = 17;
loading_factor = [1650, 1350, 850, 1100, 1000, 900, 1600, 1300, 1400, 1900, 1400, 1000, 1200, 950, 1400, 1950, 1500];
pickup_time = [0, 0, 0, 0, 0, 0, 1, 2, 2, 2, 2, 2, 3, 3, 3, 3, 3];
delivery_time = [1, 2, 1, 1, 1, 2, 2, 3, 3, 3, 3, 3, 4, 4, 4, 4, 4];

% transporter definition
total_capacity = 7000;
num_decks = 3;
capacity = [3000, 1000, 3000];

% ways out of decks
num_ways_out = 1;
paths_out = array3d(decks, ways_out, decks, [
% ways out of deck d1
2, 3, 0, 

% ways out of deck d2
3, 0, 0, 

% ways out of deck d3
0, 0, 0,	

]);

